p cnf 20 27
-1 6 0
-7 0
-8 0
-2 9 0
-6 9 0
-2 -8 0
-3 12 0
-9 12 0
-3 -11 0
-4 15 0
-12 15 0
-4 -14 0
-5 17 0
-2 -6 10 0
-7 -10 0
-2 -7 11 0
-8 -11 0
-3 -9 13 0
-10 -13 0
-3 -10 14 0
-11 -14 0
-4 -12 16 0
-13 -16 0
-4 -13 17 0
-14 -17 0
17 16 0
17 5 0
